; Gnark SCS constraint system export
; Field: 21888242871839275222246405745257275088548364400416034343698204186575808495617
; Variables: 1 public, 4 secret, 89 internal
; Constraints: 95

(set-logic QF_FF)
(define-sort F () (_ FiniteField 21888242871839275222246405745257275088548364400416034343698204186575808495617))

(declare-const w0 F)
(declare-const w1 F)
(declare-const w2 F)
(declare-const w3 F)
(declare-const w4 F)
(declare-const w5 F)
(declare-const w6 F)
(declare-const w7 F)
(declare-const w8 F)
(declare-const w9 F)
(declare-const w10 F)
(declare-const w11 F)
(declare-const w12 F)
(declare-const w13 F)
(declare-const w14 F)
(declare-const w15 F)
(declare-const w16 F)
(declare-const w17 F)
(declare-const w18 F)
(declare-const w19 F)
(declare-const w20 F)
(declare-const w21 F)
(declare-const w22 F)
(declare-const w23 F)
(declare-const w24 F)
(declare-const w25 F)
(declare-const w26 F)
(declare-const w27 F)
(declare-const w28 F)
(declare-const w29 F)
(declare-const w30 F)
(declare-const w31 F)
(declare-const w32 F)
(declare-const w33 F)
(declare-const w34 F)
(declare-const w35 F)
(declare-const w36 F)
(declare-const w37 F)
(declare-const w38 F)
(declare-const w39 F)
(declare-const w40 F)
(declare-const w41 F)
(declare-const w42 F)
(declare-const w43 F)
(declare-const w44 F)
(declare-const w45 F)
(declare-const w46 F)
(declare-const w47 F)
(declare-const w48 F)
(declare-const w49 F)
(declare-const w50 F)
(declare-const w51 F)
(declare-const w52 F)
(declare-const w53 F)
(declare-const w54 F)
(declare-const w55 F)
(declare-const w56 F)
(declare-const w57 F)
(declare-const w58 F)
(declare-const w59 F)
(declare-const w60 F)
(declare-const w61 F)
(declare-const w62 F)
(declare-const w63 F)
(declare-const w64 F)
(declare-const w65 F)
(declare-const w66 F)
(declare-const w67 F)
(declare-const w68 F)
(declare-const w69 F)
(declare-const w70 F)
(declare-const w71 F)
(declare-const w72 F)
(declare-const w73 F)
(declare-const w74 F)
(declare-const w75 F)
(declare-const w76 F)
(declare-const w77 F)
(declare-const w78 F)
(declare-const w79 F)
(declare-const w80 F)
(declare-const w81 F)
(declare-const w82 F)
(declare-const w83 F)
(declare-const w84 F)
(declare-const w85 F)
(declare-const w86 F)
(declare-const w87 F)
(declare-const w88 F)
(declare-const w89 F)
(declare-const w90 F)
(declare-const w91 F)
(declare-const w92 F)
(declare-const w93 F)

(define-const zero F (as ff0 F))

; Constraint 0: 1*Limb0 + 256*Limb1 + -1*v0 == 0
(assert (= (ff.add (ff.add (ff.mul (as ff1 F) w1) (ff.mul (as ff256 F) w2)) (ff.mul (as ff21888242871839275222246405745257275088548364400416034343698204186575808495616 F) w5)) zero))

; Constraint 1: 1*v0 + 65536*Limb2 + -1*v1 == 0
(assert (= (ff.add (ff.add (ff.mul (as ff1 F) w5) (ff.mul (as ff65536 F) w3)) (ff.mul (as ff21888242871839275222246405745257275088548364400416034343698204186575808495616 F) w6)) zero))

; Constraint 2: 1*v1 + 16777216*Limb3 + -1*v2 == 0
(assert (= (ff.add (ff.add (ff.mul (as ff1 F) w6) (ff.mul (as ff16777216 F) w4)) (ff.mul (as ff21888242871839275222246405745257275088548364400416034343698204186575808495616 F) w7)) zero))

; Constraint 3: 1*v2 + -1*Value == 0
(assert (= (ff.add (ff.mul (as ff1 F) w7) (ff.mul (as ff21888242871839275222246405745257275088548364400416034343698204186575808495616 F) w0)) zero))

; Constraint 4: 1*v3 + 4*v4 + -1*v7 == 0
(assert (= (ff.add (ff.add (ff.mul (as ff1 F) w8) (ff.mul (as ff4 F) w9)) (ff.mul (as ff21888242871839275222246405745257275088548364400416034343698204186575808495616 F) w12)) zero))

; Constraint 5: 1*v7 + 16*v5 + -1*v8 == 0
(assert (= (ff.add (ff.add (ff.mul (as ff1 F) w12) (ff.mul (as ff16 F) w10)) (ff.mul (as ff21888242871839275222246405745257275088548364400416034343698204186575808495616 F) w13)) zero))

; Constraint 6: 1*v8 + 64*v6 + -1*Limb0 == 0
(assert (= (ff.add (ff.add (ff.mul (as ff1 F) w13) (ff.mul (as ff64 F) w11)) (ff.mul (as ff21888242871839275222246405745257275088548364400416034343698204186575808495616 F) w1)) zero))

; Constraint 7: 1*v9 + 4*v10 + -1*v13 == 0
(assert (= (ff.add (ff.add (ff.mul (as ff1 F) w14) (ff.mul (as ff4 F) w15)) (ff.mul (as ff21888242871839275222246405745257275088548364400416034343698204186575808495616 F) w18)) zero))

; Constraint 8: 1*v13 + 16*v11 + -1*v14 == 0
(assert (= (ff.add (ff.add (ff.mul (as ff1 F) w18) (ff.mul (as ff16 F) w16)) (ff.mul (as ff21888242871839275222246405745257275088548364400416034343698204186575808495616 F) w19)) zero))

; Constraint 9: 1*v14 + 64*v12 + -1*Limb1 == 0
(assert (= (ff.add (ff.add (ff.mul (as ff1 F) w19) (ff.mul (as ff64 F) w17)) (ff.mul (as ff21888242871839275222246405745257275088548364400416034343698204186575808495616 F) w2)) zero))

; Constraint 10: 1*v15 + 4*v16 + -1*v19 == 0
(assert (= (ff.add (ff.add (ff.mul (as ff1 F) w20) (ff.mul (as ff4 F) w21)) (ff.mul (as ff21888242871839275222246405745257275088548364400416034343698204186575808495616 F) w24)) zero))

; Constraint 11: 1*v19 + 16*v17 + -1*v20 == 0
(assert (= (ff.add (ff.add (ff.mul (as ff1 F) w24) (ff.mul (as ff16 F) w22)) (ff.mul (as ff21888242871839275222246405745257275088548364400416034343698204186575808495616 F) w25)) zero))

; Constraint 12: 1*v20 + 64*v18 + -1*Limb2 == 0
(assert (= (ff.add (ff.add (ff.mul (as ff1 F) w25) (ff.mul (as ff64 F) w23)) (ff.mul (as ff21888242871839275222246405745257275088548364400416034343698204186575808495616 F) w3)) zero))

; Constraint 13: 1*v21 + 4*v22 + -1*v25 == 0
(assert (= (ff.add (ff.add (ff.mul (as ff1 F) w26) (ff.mul (as ff4 F) w27)) (ff.mul (as ff21888242871839275222246405745257275088548364400416034343698204186575808495616 F) w30)) zero))

; Constraint 14: 1*v25 + 16*v23 + -1*v26 == 0
(assert (= (ff.add (ff.add (ff.mul (as ff1 F) w30) (ff.mul (as ff16 F) w28)) (ff.mul (as ff21888242871839275222246405745257275088548364400416034343698204186575808495616 F) w31)) zero))

; Constraint 15: 1*v26 + 64*v24 + -1*Limb3 == 0
(assert (= (ff.add (ff.add (ff.mul (as ff1 F) w31) (ff.mul (as ff64 F) w29)) (ff.mul (as ff21888242871839275222246405745257275088548364400416034343698204186575808495616 F) w4)) zero))

; Constraint 16: -1*v3 == 0
(assert (= (ff.mul (as ff21888242871839275222246405745257275088548364400416034343698204186575808495616 F) w8) zero))

; Constraint 17: -1*v4 == 0
(assert (= (ff.mul (as ff21888242871839275222246405745257275088548364400416034343698204186575808495616 F) w9) zero))

; Constraint 18: -1*v5 == 0
(assert (= (ff.mul (as ff21888242871839275222246405745257275088548364400416034343698204186575808495616 F) w10) zero))

; Constraint 19: -1*v6 == 0
(assert (= (ff.mul (as ff21888242871839275222246405745257275088548364400416034343698204186575808495616 F) w11) zero))

; Constraint 20: -1*v9 == 0
(assert (= (ff.mul (as ff21888242871839275222246405745257275088548364400416034343698204186575808495616 F) w14) zero))

; Constraint 21: -1*v10 == 0
(assert (= (ff.mul (as ff21888242871839275222246405745257275088548364400416034343698204186575808495616 F) w15) zero))

; Constraint 22: -1*v11 == 0
(assert (= (ff.mul (as ff21888242871839275222246405745257275088548364400416034343698204186575808495616 F) w16) zero))

; Constraint 23: -1*v12 == 0
(assert (= (ff.mul (as ff21888242871839275222246405745257275088548364400416034343698204186575808495616 F) w17) zero))

; Constraint 24: -1*v15 == 0
(assert (= (ff.mul (as ff21888242871839275222246405745257275088548364400416034343698204186575808495616 F) w20) zero))

; Constraint 25: -1*v16 == 0
(assert (= (ff.mul (as ff21888242871839275222246405745257275088548364400416034343698204186575808495616 F) w21) zero))

; Constraint 26: -1*v17 == 0
(assert (= (ff.mul (as ff21888242871839275222246405745257275088548364400416034343698204186575808495616 F) w22) zero))

; Constraint 27: -1*v18 == 0
(assert (= (ff.mul (as ff21888242871839275222246405745257275088548364400416034343698204186575808495616 F) w23) zero))

; Constraint 28: -1*v21 == 0
(assert (= (ff.mul (as ff21888242871839275222246405745257275088548364400416034343698204186575808495616 F) w26) zero))

; Constraint 29: -1*v22 == 0
(assert (= (ff.mul (as ff21888242871839275222246405745257275088548364400416034343698204186575808495616 F) w27) zero))

; Constraint 30: -1*v23 == 0
(assert (= (ff.mul (as ff21888242871839275222246405745257275088548364400416034343698204186575808495616 F) w28) zero))

; Constraint 31: -1*v24 == 0
(assert (= (ff.mul (as ff21888242871839275222246405745257275088548364400416034343698204186575808495616 F) w29) zero))

; Constraint 32: -1*v27 == 0
(assert (= (ff.mul (as ff21888242871839275222246405745257275088548364400416034343698204186575808495616 F) w32) zero))

; Constraint 33: -1*v28 == 0
(assert (= (ff.mul (as ff21888242871839275222246405745257275088548364400416034343698204186575808495616 F) w33) zero))

; Constraint 34: -1*v29 == 0
(assert (= (ff.mul (as ff21888242871839275222246405745257275088548364400416034343698204186575808495616 F) w34) zero))

; Constraint 35: -1*v30 == 0
(assert (= (ff.mul (as ff21888242871839275222246405745257275088548364400416034343698204186575808495616 F) w35) zero))

; Constraint 36: -1*v31 == 0
(assert (= (ff.mul (as ff21888242871839275222246405745257275088548364400416034343698204186575808495616 F) w36) zero))

; Constraint 37: -1*v27 + 1*v32*v31 == 0
(assert (= (ff.add (ff.mul (as ff21888242871839275222246405745257275088548364400416034343698204186575808495616 F) w32) (ff.mul (as ff1 F) (ff.mul w37 w36))) zero))

; Constraint 38: 1*v31 + -1*v33 + -1 == 0
(assert (= (ff.add (ff.add (ff.mul (as ff1 F) w36) (ff.mul (as ff21888242871839275222246405745257275088548364400416034343698204186575808495616 F) w38)) (as ff21888242871839275222246405745257275088548364400416034343698204186575808495616 F)) zero))

; Constraint 39: -1*v28 + 1*v34*v33 == 0
(assert (= (ff.add (ff.mul (as ff21888242871839275222246405745257275088548364400416034343698204186575808495616 F) w33) (ff.mul (as ff1 F) (ff.mul w39 w38))) zero))

; Constraint 40: 1*v32 + 1*v34 + -1*v35 == 0
(assert (= (ff.add (ff.add (ff.mul (as ff1 F) w37) (ff.mul (as ff1 F) w39)) (ff.mul (as ff21888242871839275222246405745257275088548364400416034343698204186575808495616 F) w40)) zero))

; Constraint 41: 1*v31 + -1*v36 + -2 == 0
(assert (= (ff.add (ff.add (ff.mul (as ff1 F) w36) (ff.mul (as ff21888242871839275222246405745257275088548364400416034343698204186575808495616 F) w41)) (as ff21888242871839275222246405745257275088548364400416034343698204186575808495615 F)) zero))

; Constraint 42: -1*v29 + 1*v37*v36 == 0
(assert (= (ff.add (ff.mul (as ff21888242871839275222246405745257275088548364400416034343698204186575808495616 F) w34) (ff.mul (as ff1 F) (ff.mul w42 w41))) zero))

; Constraint 43: 1*v35 + 1*v37 + -1*v38 == 0
(assert (= (ff.add (ff.add (ff.mul (as ff1 F) w40) (ff.mul (as ff1 F) w42)) (ff.mul (as ff21888242871839275222246405745257275088548364400416034343698204186575808495616 F) w43)) zero))

; Constraint 44: 1*v31 + -1*v39 + -3 == 0
(assert (= (ff.add (ff.add (ff.mul (as ff1 F) w36) (ff.mul (as ff21888242871839275222246405745257275088548364400416034343698204186575808495616 F) w44)) (as ff21888242871839275222246405745257275088548364400416034343698204186575808495614 F)) zero))

; Constraint 45: -1*v30 + 1*v40*v39 == 0
(assert (= (ff.add (ff.mul (as ff21888242871839275222246405745257275088548364400416034343698204186575808495616 F) w35) (ff.mul (as ff1 F) (ff.mul w45 w44))) zero))

; Constraint 46: 1*v38 + 1*v40 + -1*v41 == 0
(assert (= (ff.add (ff.add (ff.mul (as ff1 F) w43) (ff.mul (as ff1 F) w45)) (ff.mul (as ff21888242871839275222246405745257275088548364400416034343698204186575808495616 F) w46)) zero))

; Constraint 47: -1*v3 + 1*v31 + -1*v42 == 0
(assert (= (ff.add (ff.add (ff.mul (as ff21888242871839275222246405745257275088548364400416034343698204186575808495616 F) w8) (ff.mul (as ff1 F) w36)) (ff.mul (as ff21888242871839275222246405745257275088548364400416034343698204186575808495616 F) w47)) zero))

; Constraint 48: -1*v4 + 1*v31 + -1*v43 == 0
(assert (= (ff.add (ff.add (ff.mul (as ff21888242871839275222246405745257275088548364400416034343698204186575808495616 F) w9) (ff.mul (as ff1 F) w36)) (ff.mul (as ff21888242871839275222246405745257275088548364400416034343698204186575808495616 F) w48)) zero))

; Constraint 49: -1*v5 + 1*v31 + -1*v44 == 0
(assert (= (ff.add (ff.add (ff.mul (as ff21888242871839275222246405745257275088548364400416034343698204186575808495616 F) w10) (ff.mul (as ff1 F) w36)) (ff.mul (as ff21888242871839275222246405745257275088548364400416034343698204186575808495616 F) w49)) zero))

; Constraint 50: -1*v6 + 1*v31 + -1*v45 == 0
(assert (= (ff.add (ff.add (ff.mul (as ff21888242871839275222246405745257275088548364400416034343698204186575808495616 F) w11) (ff.mul (as ff1 F) w36)) (ff.mul (as ff21888242871839275222246405745257275088548364400416034343698204186575808495616 F) w50)) zero))

; Constraint 51: -1*v9 + 1*v31 + -1*v46 == 0
(assert (= (ff.add (ff.add (ff.mul (as ff21888242871839275222246405745257275088548364400416034343698204186575808495616 F) w14) (ff.mul (as ff1 F) w36)) (ff.mul (as ff21888242871839275222246405745257275088548364400416034343698204186575808495616 F) w51)) zero))

; Constraint 52: -1*v10 + 1*v31 + -1*v47 == 0
(assert (= (ff.add (ff.add (ff.mul (as ff21888242871839275222246405745257275088548364400416034343698204186575808495616 F) w15) (ff.mul (as ff1 F) w36)) (ff.mul (as ff21888242871839275222246405745257275088548364400416034343698204186575808495616 F) w52)) zero))

; Constraint 53: -1*v11 + 1*v31 + -1*v48 == 0
(assert (= (ff.add (ff.add (ff.mul (as ff21888242871839275222246405745257275088548364400416034343698204186575808495616 F) w16) (ff.mul (as ff1 F) w36)) (ff.mul (as ff21888242871839275222246405745257275088548364400416034343698204186575808495616 F) w53)) zero))

; Constraint 54: -1*v12 + 1*v31 + -1*v49 == 0
(assert (= (ff.add (ff.add (ff.mul (as ff21888242871839275222246405745257275088548364400416034343698204186575808495616 F) w17) (ff.mul (as ff1 F) w36)) (ff.mul (as ff21888242871839275222246405745257275088548364400416034343698204186575808495616 F) w54)) zero))

; Constraint 55: -1*v15 + 1*v31 + -1*v50 == 0
(assert (= (ff.add (ff.add (ff.mul (as ff21888242871839275222246405745257275088548364400416034343698204186575808495616 F) w20) (ff.mul (as ff1 F) w36)) (ff.mul (as ff21888242871839275222246405745257275088548364400416034343698204186575808495616 F) w55)) zero))

; Constraint 56: -1*v16 + 1*v31 + -1*v51 == 0
(assert (= (ff.add (ff.add (ff.mul (as ff21888242871839275222246405745257275088548364400416034343698204186575808495616 F) w21) (ff.mul (as ff1 F) w36)) (ff.mul (as ff21888242871839275222246405745257275088548364400416034343698204186575808495616 F) w56)) zero))

; Constraint 57: -1*v17 + 1*v31 + -1*v52 == 0
(assert (= (ff.add (ff.add (ff.mul (as ff21888242871839275222246405745257275088548364400416034343698204186575808495616 F) w22) (ff.mul (as ff1 F) w36)) (ff.mul (as ff21888242871839275222246405745257275088548364400416034343698204186575808495616 F) w57)) zero))

; Constraint 58: -1*v18 + 1*v31 + -1*v53 == 0
(assert (= (ff.add (ff.add (ff.mul (as ff21888242871839275222246405745257275088548364400416034343698204186575808495616 F) w23) (ff.mul (as ff1 F) w36)) (ff.mul (as ff21888242871839275222246405745257275088548364400416034343698204186575808495616 F) w58)) zero))

; Constraint 59: -1*v21 + 1*v31 + -1*v54 == 0
(assert (= (ff.add (ff.add (ff.mul (as ff21888242871839275222246405745257275088548364400416034343698204186575808495616 F) w26) (ff.mul (as ff1 F) w36)) (ff.mul (as ff21888242871839275222246405745257275088548364400416034343698204186575808495616 F) w59)) zero))

; Constraint 60: -1*v22 + 1*v31 + -1*v55 == 0
(assert (= (ff.add (ff.add (ff.mul (as ff21888242871839275222246405745257275088548364400416034343698204186575808495616 F) w27) (ff.mul (as ff1 F) w36)) (ff.mul (as ff21888242871839275222246405745257275088548364400416034343698204186575808495616 F) w60)) zero))

; Constraint 61: -1*v23 + 1*v31 + -1*v56 == 0
(assert (= (ff.add (ff.add (ff.mul (as ff21888242871839275222246405745257275088548364400416034343698204186575808495616 F) w28) (ff.mul (as ff1 F) w36)) (ff.mul (as ff21888242871839275222246405745257275088548364400416034343698204186575808495616 F) w61)) zero))

; Constraint 62: -1*v24 + 1*v31 + -1*v57 == 0
(assert (= (ff.add (ff.add (ff.mul (as ff21888242871839275222246405745257275088548364400416034343698204186575808495616 F) w29) (ff.mul (as ff1 F) w36)) (ff.mul (as ff21888242871839275222246405745257275088548364400416034343698204186575808495616 F) w62)) zero))

; Constraint 63: 1*v58*v42 + -1 == 0
(assert (= (ff.add (ff.mul (as ff1 F) (ff.mul w63 w47)) (as ff21888242871839275222246405745257275088548364400416034343698204186575808495616 F)) zero))

; Constraint 64: 1*v59*v43 + -1 == 0
(assert (= (ff.add (ff.mul (as ff1 F) (ff.mul w64 w48)) (as ff21888242871839275222246405745257275088548364400416034343698204186575808495616 F)) zero))

; Constraint 65: 1*v60*v44 + -1 == 0
(assert (= (ff.add (ff.mul (as ff1 F) (ff.mul w65 w49)) (as ff21888242871839275222246405745257275088548364400416034343698204186575808495616 F)) zero))

; Constraint 66: 1*v61*v45 + -1 == 0
(assert (= (ff.add (ff.mul (as ff1 F) (ff.mul w66 w50)) (as ff21888242871839275222246405745257275088548364400416034343698204186575808495616 F)) zero))

; Constraint 67: 1*v62*v46 + -1 == 0
(assert (= (ff.add (ff.mul (as ff1 F) (ff.mul w67 w51)) (as ff21888242871839275222246405745257275088548364400416034343698204186575808495616 F)) zero))

; Constraint 68: 1*v63*v47 + -1 == 0
(assert (= (ff.add (ff.mul (as ff1 F) (ff.mul w68 w52)) (as ff21888242871839275222246405745257275088548364400416034343698204186575808495616 F)) zero))

; Constraint 69: 1*v64*v48 + -1 == 0
(assert (= (ff.add (ff.mul (as ff1 F) (ff.mul w69 w53)) (as ff21888242871839275222246405745257275088548364400416034343698204186575808495616 F)) zero))

; Constraint 70: 1*v65*v49 + -1 == 0
(assert (= (ff.add (ff.mul (as ff1 F) (ff.mul w70 w54)) (as ff21888242871839275222246405745257275088548364400416034343698204186575808495616 F)) zero))

; Constraint 71: 1*v66*v50 + -1 == 0
(assert (= (ff.add (ff.mul (as ff1 F) (ff.mul w71 w55)) (as ff21888242871839275222246405745257275088548364400416034343698204186575808495616 F)) zero))

; Constraint 72: 1*v67*v51 + -1 == 0
(assert (= (ff.add (ff.mul (as ff1 F) (ff.mul w72 w56)) (as ff21888242871839275222246405745257275088548364400416034343698204186575808495616 F)) zero))

; Constraint 73: 1*v68*v52 + -1 == 0
(assert (= (ff.add (ff.mul (as ff1 F) (ff.mul w73 w57)) (as ff21888242871839275222246405745257275088548364400416034343698204186575808495616 F)) zero))

; Constraint 74: 1*v69*v53 + -1 == 0
(assert (= (ff.add (ff.mul (as ff1 F) (ff.mul w74 w58)) (as ff21888242871839275222246405745257275088548364400416034343698204186575808495616 F)) zero))

; Constraint 75: 1*v70*v54 + -1 == 0
(assert (= (ff.add (ff.mul (as ff1 F) (ff.mul w75 w59)) (as ff21888242871839275222246405745257275088548364400416034343698204186575808495616 F)) zero))

; Constraint 76: 1*v71*v55 + -1 == 0
(assert (= (ff.add (ff.mul (as ff1 F) (ff.mul w76 w60)) (as ff21888242871839275222246405745257275088548364400416034343698204186575808495616 F)) zero))

; Constraint 77: 1*v72*v56 + -1 == 0
(assert (= (ff.add (ff.mul (as ff1 F) (ff.mul w77 w61)) (as ff21888242871839275222246405745257275088548364400416034343698204186575808495616 F)) zero))

; Constraint 78: 1*v73*v57 + -1 == 0
(assert (= (ff.add (ff.mul (as ff1 F) (ff.mul w78 w62)) (as ff21888242871839275222246405745257275088548364400416034343698204186575808495616 F)) zero))

; Constraint 79: 1*v58 + 1*v59 + -1*v74 == 0
(assert (= (ff.add (ff.add (ff.mul (as ff1 F) w63) (ff.mul (as ff1 F) w64)) (ff.mul (as ff21888242871839275222246405745257275088548364400416034343698204186575808495616 F) w79)) zero))

; Constraint 80: 1*v60 + 1*v74 + -1*v75 == 0
(assert (= (ff.add (ff.add (ff.mul (as ff1 F) w65) (ff.mul (as ff1 F) w79)) (ff.mul (as ff21888242871839275222246405745257275088548364400416034343698204186575808495616 F) w80)) zero))

; Constraint 81: 1*v61 + 1*v75 + -1*v76 == 0
(assert (= (ff.add (ff.add (ff.mul (as ff1 F) w66) (ff.mul (as ff1 F) w80)) (ff.mul (as ff21888242871839275222246405745257275088548364400416034343698204186575808495616 F) w81)) zero))

; Constraint 82: 1*v62 + 1*v76 + -1*v77 == 0
(assert (= (ff.add (ff.add (ff.mul (as ff1 F) w67) (ff.mul (as ff1 F) w81)) (ff.mul (as ff21888242871839275222246405745257275088548364400416034343698204186575808495616 F) w82)) zero))

; Constraint 83: 1*v63 + 1*v77 + -1*v78 == 0
(assert (= (ff.add (ff.add (ff.mul (as ff1 F) w68) (ff.mul (as ff1 F) w82)) (ff.mul (as ff21888242871839275222246405745257275088548364400416034343698204186575808495616 F) w83)) zero))

; Constraint 84: 1*v64 + 1*v78 + -1*v79 == 0
(assert (= (ff.add (ff.add (ff.mul (as ff1 F) w69) (ff.mul (as ff1 F) w83)) (ff.mul (as ff21888242871839275222246405745257275088548364400416034343698204186575808495616 F) w84)) zero))

; Constraint 85: 1*v65 + 1*v79 + -1*v80 == 0
(assert (= (ff.add (ff.add (ff.mul (as ff1 F) w70) (ff.mul (as ff1 F) w84)) (ff.mul (as ff21888242871839275222246405745257275088548364400416034343698204186575808495616 F) w85)) zero))

; Constraint 86: 1*v66 + 1*v80 + -1*v81 == 0
(assert (= (ff.add (ff.add (ff.mul (as ff1 F) w71) (ff.mul (as ff1 F) w85)) (ff.mul (as ff21888242871839275222246405745257275088548364400416034343698204186575808495616 F) w86)) zero))

; Constraint 87: 1*v67 + 1*v81 + -1*v82 == 0
(assert (= (ff.add (ff.add (ff.mul (as ff1 F) w72) (ff.mul (as ff1 F) w86)) (ff.mul (as ff21888242871839275222246405745257275088548364400416034343698204186575808495616 F) w87)) zero))

; Constraint 88: 1*v68 + 1*v82 + -1*v83 == 0
(assert (= (ff.add (ff.add (ff.mul (as ff1 F) w73) (ff.mul (as ff1 F) w87)) (ff.mul (as ff21888242871839275222246405745257275088548364400416034343698204186575808495616 F) w88)) zero))

; Constraint 89: 1*v69 + 1*v83 + -1*v84 == 0
(assert (= (ff.add (ff.add (ff.mul (as ff1 F) w74) (ff.mul (as ff1 F) w88)) (ff.mul (as ff21888242871839275222246405745257275088548364400416034343698204186575808495616 F) w89)) zero))

; Constraint 90: 1*v70 + 1*v84 + -1*v85 == 0
(assert (= (ff.add (ff.add (ff.mul (as ff1 F) w75) (ff.mul (as ff1 F) w89)) (ff.mul (as ff21888242871839275222246405745257275088548364400416034343698204186575808495616 F) w90)) zero))

; Constraint 91: 1*v71 + 1*v85 + -1*v86 == 0
(assert (= (ff.add (ff.add (ff.mul (as ff1 F) w76) (ff.mul (as ff1 F) w90)) (ff.mul (as ff21888242871839275222246405745257275088548364400416034343698204186575808495616 F) w91)) zero))

; Constraint 92: 1*v72 + 1*v86 + -1*v87 == 0
(assert (= (ff.add (ff.add (ff.mul (as ff1 F) w77) (ff.mul (as ff1 F) w91)) (ff.mul (as ff21888242871839275222246405745257275088548364400416034343698204186575808495616 F) w92)) zero))

; Constraint 93: 1*v73 + 1*v87 + -1*v88 == 0
(assert (= (ff.add (ff.add (ff.mul (as ff1 F) w78) (ff.mul (as ff1 F) w92)) (ff.mul (as ff21888242871839275222246405745257275088548364400416034343698204186575808495616 F) w93)) zero))

; Constraint 94: 1*v41 + -1*v88 == 0
(assert (= (ff.add (ff.mul (as ff1 F) w46) (ff.mul (as ff21888242871839275222246405745257275088548364400416034343698204186575808495616 F) w93)) zero))

(check-sat)
